50 8
525 491
840 179
627 719
694 668
791 145
917 99
291 479
260 463
256 334
729 915
270 534
101 435
692 836
801 166
612 713
233 204
224 397
343 398
753 516
808 881
334 57
587 253
227 419
305 463
799 187
633 79
522 358
275 372
260 150
694 97
238 389
210 663
844 628
194 238
853 572
170 308
511 461
691 906
676 392
537 304
350 173
352 223
207 645
368 96
230 603
551 343
175 297
563 463
311 147
159 307
